max_without_rest_duration = array(0..mach_count,[10,5]);
max_without_big_rest_duration = array(0..mach_count, [50,60];
rest_time = array(0..mach_count, [1,2]);
big_rest_time = array(0..mach_count, [5,10]);
    